NAME          
ROWS
 N  OBJ
 L  c1
 L  c2
COLUMNS
    MARKER    'MARKER'                 'INTORG'
    x[1]      c1        148
    x[1]      c2        2
    x[1]      OBJ       -230
    x[2]      c1        760
    x[2]      c2        988
    x[2]      OBJ       -776
    x[3]      c1        303
    x[3]      c2        673
    x[3]      OBJ       -794
    x[4]      c1        672
    x[4]      c2        349
    x[4]      OBJ       -699
    x[5]      c1        911
    x[5]      c2        289
    x[5]      OBJ       -980
    x[6]      c1        914
    x[6]      c2        306
    x[6]      OBJ       -444
    x[7]      c1        624
    x[7]      c2        792
    x[7]      OBJ       -468
    x[8]      c1        473
    x[8]      c2        91
    x[8]      OBJ       -110
    x[9]      c1        213
    x[9]      c2        319
    x[9]      OBJ       -757
    x[10]     c1        980
    x[10]     c2        648
    x[10]     OBJ       -281
    x[11]     c1        913
    x[11]     c2        207
    x[11]     OBJ       -791
    x[12]     c1        561
    x[12]     c2        78
    x[12]     OBJ       -962
    x[13]     c1        802
    x[13]     c2        197
    x[13]     OBJ       -695
    x[14]     c1        738
    x[14]     c2        633
    x[14]     OBJ       -737
    x[15]     c1        937
    x[15]     c2        195
    x[15]     OBJ       -221
    x[16]     c1        763
    x[16]     c2        411
    x[16]     OBJ       -349
    x[17]     c1        863
    x[17]     c2        761
    x[17]     OBJ       -578
    x[18]     c1        10
    x[18]     c2        809
    x[18]     OBJ       -298
    x[19]     c1        417
    x[19]     c2        916
    x[19]     OBJ       -549
    x[20]     c1        475
    x[20]     c2        601
    x[20]     OBJ       -869
    x[21]     c1        364
    x[21]     c2        877
    x[21]     OBJ       -256
    x[22]     c1        502
    x[22]     c2        300
    x[22]     OBJ       -811
    x[23]     c1        426
    x[23]     c2        217
    x[23]     OBJ       -39
    x[24]     c1        84
    x[24]     c2        402
    x[24]     OBJ       -290
    x[25]     c1        686
    x[25]     c2        524
    x[25]     OBJ       -326
    x[26]     c1        196
    x[26]     c2        331
    x[26]     OBJ       -25
    x[27]     c1        819
    x[27]     c2        590
    x[27]     OBJ       -355
    x[28]     c1        706
    x[28]     c2        147
    x[28]     OBJ       -976
    x[29]     c1        950
    x[29]     c2        762
    x[29]     OBJ       -561
    x[30]     c1        388
    x[30]     c2        309
    x[30]     OBJ       -735
    x[31]     c1        500
    x[31]     c2        238
    x[31]     OBJ       -22
    x[32]     c1        621
    x[32]     c2        664
    x[32]     OBJ       -710
    x[33]     c1        673
    x[33]     c2        474
    x[33]     OBJ       -53
    x[34]     c1        359
    x[34]     c2        417
    x[34]     OBJ       -483
    x[35]     c1        355
    x[35]     c2        361
    x[35]     OBJ       -294
    x[36]     c1        902
    x[36]     c2        848
    x[36]     OBJ       -190
    x[37]     c1        779
    x[37]     c2        251
    x[37]     OBJ       -613
    x[38]     c1        436
    x[38]     c2        829
    x[38]     OBJ       -168
    x[39]     c1        646
    x[39]     c2        790
    x[39]     OBJ       -317
    x[40]     c1        838
    x[40]     c2        744
    x[40]     OBJ       -762
RHS
    rhs       c1        11854
    rhs       c2        9670
RANGES
BOUNDS
 BV bounds    x[1]
 BV bounds    x[2]
 BV bounds    x[3]
 BV bounds    x[4]
 BV bounds    x[5]
 BV bounds    x[6]
 BV bounds    x[7]
 BV bounds    x[8]
 BV bounds    x[9]
 BV bounds    x[10]
 BV bounds    x[11]
 BV bounds    x[12]
 BV bounds    x[13]
 BV bounds    x[14]
 BV bounds    x[15]
 BV bounds    x[16]
 BV bounds    x[17]
 BV bounds    x[18]
 BV bounds    x[19]
 BV bounds    x[20]
 BV bounds    x[21]
 BV bounds    x[22]
 BV bounds    x[23]
 BV bounds    x[24]
 BV bounds    x[25]
 BV bounds    x[26]
 BV bounds    x[27]
 BV bounds    x[28]
 BV bounds    x[29]
 BV bounds    x[30]
 BV bounds    x[31]
 BV bounds    x[32]
 BV bounds    x[33]
 BV bounds    x[34]
 BV bounds    x[35]
 BV bounds    x[36]
 BV bounds    x[37]
 BV bounds    x[38]
 BV bounds    x[39]
 BV bounds    x[40]
ENDATA
